51156 17 833 4800 54482 1
51358 22 1078 4617 55498 0.98
51128 29 1421 6590 55502 0.96
53088 7 343 1503 54852 1
50872 26 1274 8209 55074 0.94
51842 19 931 4223 55428 0.96
52260 14 686 3730 56000 1
51620 23 1127 7654 55942 1
51606 15 735 3329 56448 1
51252 16 784 3480 54778 0.96
